# Solution for model MIP
# Objective value = -2.3129852922023997e+02
B0(10) 0
B1(10) 0
B2(10) 1
B3(10) 0
B4(10) 1
B5(10) 1
B6(10) 0
B7(10) 1
B8(10) 0
B9(10) 0
B10(10) 1
B11(10) 0
B12(10) 0
B13(10) 1
B14(10) 0
B15(10) 1
B16(10) 1
B17(10) 0
B18(10) 1
B19(10) 1
B20(10) 0
B21(10) 0
B22(10) 1
B23(10) 0
B24(10) 0
B25(10) 0
B26(10) 1
B27(10) 1
B28(10) 0
B29(10) 1
B30(10) 0
B31(10) 0
B32(10) 1
B33(10) 0
B34(10) 1
B35(10) 1
B36(10) 0
B37(10) 1
B38(10) 1
B39(10) 1
B40(10) 0
B41(10) 0
B42(10) 0
B43(10) 0
C44(18) -1.9528968931657346e+02
C45(2) 9.1080387081762926e-01
C46(2) 8.6768991238714543e-01
C47(1) 9.1531999038020151e-01
C48(1) 4.6281550926792936e-01
C49(2) 8.6247204977706093e-01
C50(2) 8.6632963266941287e-01
C51(2) 8.6768991238714543e-01
C52(2) 8.6768991238714532e-01
C53(1) 9.1531999038020151e-01
C54(1) 4.6281550926792936e-01
C55(2) 8.7166748562166285e-01
C56(2) 8.6247204977706093e-01
C57(2) 8.6768991238714532e-01
C58(2) 8.6768991238714555e-01
C59(2) 9.3447621330135555e-01
C60(2) 8.9870866736692245e-01
C61(2) 8.6247204977706105e-01
C62(2) 8.6247204977706105e-01
C63(1) 9.1531999038020151e-01
C64(1) 4.6281550926792936e-01
C65(2) 8.9870866736692256e-01
C66(2) 9.3417966809118713e-01
C67(1) 9.1531999038020151e-01
C68(1) 4.6281550926792936e-01
C69(1) 9.1531999038020151e-01
C70(1) 4.6281550926792936e-01
C71(2) 9.3447621330135555e-01
C72(2) 8.9870866736692245e-01
C73(1) 9.1531999038020151e-01
C74(1) 4.6281550926792936e-01
C75(4) 1.9767840401329711e-02
C76(3) 1
C77(4) 0
C78(4) 0
C79(3) 0
C80(4) 0
C81(4) 0
C82(3) 0
C83(4) 6.2081787857049632e-02
C84(4) 0
C85(3) 0
C86(4) 0
C87(4) 0
C88(3) 0
C89(4) 0
C90(4) 9.5530518447103607e-01
C91(3) 0
C92(4) 9.0791821214295032e-01
C93(4) 0
C94(3) 0
C95(4) 0
C96(4) 0
C97(3) 0
C98(4) 0
C99(4) 0
C100(3) 0
C101(4) 0
C102(4) 0
C103(3) 0
C104(4) 0
C105(2) 2.4926975127634261e-02
C106(1) 0
C107(2) 0.03
C108(4) 1.2195770119869891e-01
C109(3) 1
C110(4) 0
C111(4) 7.2224326727048122e-02
C112(3) 0
C113(4) 0
C114(4) 0
C115(3) 0
C116(4) 0
C117(4) 0
C118(3) 0
C119(4) 0
C120(4) 6.2804229880130114e-01
C121(3) 0
C122(4) 5.2608288955396143e-01
C123(4) 1.7777567327295188e-01
C124(3) 0
C125(4) 4.1175895485521818e-01
C126(4) 0
C127(3) 0
C128(4) 0
C129(4) 0
C130(3) 0
C131(4) 0
C132(4) 0
C133(3) 0
C134(4) 0
C135(4) 0
C136(3) 0
C137(4) 0
C138(2) 0
C139(1) 0
C140(2) 6.2158155590820434e-02
C141(4) 5.2567280610062737e-02
C142(4) 0
C143(4) 6.3119977933281210e-02
C144(4) 0
C145(4) 0
C146(4) 0
C147(4) 9.2874882957856925e-02
C148(4) 0
C149(4) 9.9956649785483756e-02
C150(4) 0
C151(4) 0
C152(4) 0
C153(4) 0
C154(4) 0
C155(4) 0
C156(4) 8.5455783643208039e-01
C157(4) 1
C158(4) 8.3692337228123515e-01
C159(4) 0
C160(4) 0
C161(4) 0
C162(4) 0
C163(4) 0
C164(4) 0
C165(4) 0
C166(4) 0
C167(4) 0
C168(4) 0
C169(4) 0
C170(4) 0
C171(2) 0
C172(2) 0
C173(2) 0
C174(3) 1
C175(4) 0
C176(3) 1
C177(3) 0
C178(4) 3.3265699488045385e-02
C179(3) 0
C180(3) 0
C181(4) 0
C182(3) 0
C183(3) 0
C184(4) 0
C185(3) 0
C186(3) 0
C187(4) 9.6673430051195641e-01
C188(3) 0
C189(3) 0
C190(4) 0
C191(3) 0
C192(3) 0
C193(4) 0
C194(3) 0
C195(3) 0
C196(4) 0
C197(3) 0
C198(3) 0
C199(4) 0
C200(3) 0
C201(3) 0
C202(4) 0
C203(3) 0
C204(1) 0
C205(2) 0
C206(1) 0
C207(3) 1
C208(4) 0
C209(3) 1
C210(3) 0
C211(4) 0
C212(3) 0
C213(3) 0
C214(4) 0
C215(3) 0
C216(3) 0
C217(4) 0
C218(3) 0
C219(3) 0
C220(4) 0
C221(3) 0
C222(3) 0
C223(4) 1
C224(3) 0
C225(3) 0
C226(4) 0
C227(3) 0
C228(3) 0
C229(4) 0
C230(3) 0
C231(3) 0
C232(4) 0
C233(3) 0
C234(3) 0
C235(4) 0
C236(3) 0
C237(1) 0
C238(2) 0
C239(1) 0
C240(2) 5.5349953123723195e-01
C241(2) 0
C242(2) 0
C243(2) 0
C244(2) 0
C245(2) 0
C246(2) 0
C247(2) 0
C248(2) 1.5520446964262409e+00
C249(2) 0
C250(2) 0
C251(2) 0
C252(2) 0
C253(2) 0
C254(2) 0
C255(2) 2.6748545165189011e+01
C256(2) 0
C257(2) 2.2697955303573757e+01
C258(2) 0
C259(2) 0
C260(2) 0
C261(2) 0
C262(2) 0
C263(2) 0
C264(2) 0
C265(2) 0
C266(2) 0
C267(2) 0
C268(2) 0
C269(2) 0
C270(2) 6.9795530357375934e-01
C271(2) 0
C272(2) 0.75
C273(2) 2.1952386215765802e+00
C274(2) 0
C275(2) 0
C276(2) 1.3000378810868662e+00
C277(2) 0
C278(2) 0
C279(2) 0
C280(2) 0
C281(2) 0
C282(2) 0
C283(2) 0
C284(2) 0
C285(2) 1.1304761378423420e+01
C286(2) 0
C287(2) 5.8395200740489720e+01
C288(2) 3.1999621189131338e+00
C289(2) 0
C290(2) 4.5705243988929219e+01
C291(2) 0
C292(2) 0
C293(2) 0
C294(2) 0
C295(2) 0
C296(2) 0
C297(2) 0
C298(2) 0
C299(2) 0
C300(2) 0
C301(2) 0
C302(2) 0
C303(2) 0
C304(2) 0
C305(2) 6.8995552705810681e+00
C306(2) 1.1564801734213803e+00
C307(2) 0
C308(2) 1.3823275167388585e+01
C309(2) 0
C310(2) 0
C311(2) 0
C312(2) 2.0432474250728525e+00
C313(2) 0
C314(2) 2.1890506303020942e+01
C315(2) 0
C316(2) 0
C317(2) 0
C318(2) 0
C319(2) 0
C320(2) 0
C321(2) 1.8800272401505769e+01
C322(2) 235
C323(2) 1.8328621852959049e+02
C324(2) 0
C325(2) 0
C326(2) 0
C327(2) 0
C328(2) 0
C329(2) 0
C330(2) 0
C331(2) 0
C332(2) 0
C333(2) 0
C334(2) 0
C335(2) 0
C336(2) 0
C337(2) 0
C338(2) 0
C339(2) 0
C340(2) 0
C341(2) 0
C342(2) 0
C343(2) 7.6511108822504381e-01
C344(2) 0
C345(2) 0
C346(2) 0
C347(2) 0
C348(2) 0
C349(2) 0
C350(2) 0
C351(2) 0
C352(2) 2.2234888911774998e+01
C353(2) 0
C354(2) 0
C355(2) 0
C356(2) 0
C357(2) 0
C358(2) 0
C359(2) 0
C360(2) 0
C361(2) 0
C362(2) 0
C363(2) 0
C364(2) 0
C365(2) 0
C366(2) 0
C367(2) 0
C368(2) 0
C369(2) 0
C370(2) 0
C371(2) 0
C372(2) 0
C373(2) 0
C374(2) 0
C375(2) 0
C376(2) 0
C377(2) 0
C378(2) 0
C379(2) 0
C380(2) 0
C381(2) 0
C382(2) 0
C383(2) 0
C384(2) 0
C385(2) 0
C386(2) 0
C387(2) 0
C388(2) 286
C389(2) 0
C390(2) 0
C391(2) 0
C392(2) 0
C393(2) 0
C394(2) 0
C395(2) 0
C396(2) 0
C397(2) 0
C398(2) 0
C399(2) 0
C400(2) 0
C401(2) 0
C402(2) 0
C403(2) 0
C404(2) 0
C405(5) 0
C406(5) 0
C407(5) 0
C408(5) 0
C409(5) 0
C410(5) 0
C411(5) 0
C412(5) 0
C413(5) 2.0817878570496262e-01
C414(5) 0
C415(5) 0
C416(5) 0
C417(7) 0
C418(7) 0
C419(7) 0
C420(7) 2.5208178785704963e+01
C421(7) 0
C422(7) 2.4791821214295037e+01
C423(7) 0
C424(7) 0
C425(7) 0
C426(7) 0
C427(7) 0
C428(7) 0
C429(7) 0
C430(7) 0
C431(7) 0
C432(7) 0
C433(7) 0
C434(7) 0
C435(3) 2.7918212142950374e+00
C436(3) 0
C437(3) 0
C438(5) 0
C439(5) 0
C440(5) 0
C441(5) 0
C442(5) 0
C443(5) 0
C444(5) 0
C445(5) 0
C446(5) 0
C447(5) 0
C448(5) 0
C449(5) 0
C450(7) 18
C451(7) 0
C452(7) 53
C453(7) 0
C454(7) 0
C455(7) 3.0401778917675728e+01
C456(7) 0
C457(7) 0
C458(7) 0
C459(7) 0
C460(7) 0
C461(7) 0
C462(7) 0
C463(7) 0
C464(7) 0
C465(7) 0
C466(7) 0
C467(7) 0
C468(3) 0
C469(3) 0
C470(3) 2.7598221082324272e+01
C471(5) 0
C472(5) 0
C473(5) 0
C474(5) 0
C475(5) 0
C476(5) 0
C477(5) 0
C478(5) 0
C479(5) 4.9000000000000057e+01
C480(5) 0
C481(5) 0
C482(5) 0
C483(7) 0
C484(7) 0
C485(7) 0
C486(7) 22
C487(7) 235
C488(7) 1.6999999999999994e+02
C489(7) 0
C490(7) 0
C491(7) 0
C492(7) 0
C493(7) 0
C494(7) 0
C495(7) 0
C496(7) 0
C497(7) 0
C498(7) 0
C499(7) 0
C500(7) 0
C501(3) 0
C502(3) 0
C503(3) 0
C504(5) 0
C505(5) 0
C506(5) 0
C507(5) 0
C508(5) 0
C509(5) 0
C510(5) 0
C511(5) 0
C512(5) 0
C513(5) 0
C514(5) 0
C515(5) 0
C516(7) 0
C517(7) 23
C518(7) 0
C519(7) 0
C520(7) 0
C521(7) 0
C522(7) 0
C523(7) 0
C524(7) 0
C525(7) 0
C526(7) 0
C527(7) 0
C528(7) 0
C529(7) 0
C530(7) 0
C531(7) 0
C532(7) 0
C533(7) 0
C534(3) 0
C535(3) 0
C536(3) 0
C537(5) 0
C538(5) 0
C539(5) 0
C540(5) 0
C541(5) 0
C542(5) 0
C543(5) 0
C544(5) 0
C545(5) 0
C546(5) 0
C547(5) 0
C548(5) 0
C549(7) 0
C550(7) 0
C551(7) 0
C552(7) 0
C553(7) 286
C554(7) 0
C555(7) 0
C556(7) 0
C557(7) 0
C558(7) 0
C559(7) 0
C560(7) 0
C561(7) 0
C562(7) 0
C563(7) 0
C564(7) 0
C565(7) 0
C566(7) 0
C567(3) 0
C568(3) 0
C569(3) 0
C570(5) 0
C571(5) 0
C572(5) 0
C573(5) 0
C574(5) 0
C575(5) 0
C576(5) 0
C577(5) 0
C578(5) 3.0000000000000004e+00
C579(5) 0
C580(5) 0
C581(5) 0
C582(7) 0
C583(7) 0
C584(7) 0
C585(7) 28
C586(7) 0
C587(7) 22
C588(7) 0
C589(7) 0
C590(7) 0
C591(7) 0
C592(7) 0
C593(7) 0
C594(7) 0
C595(7) 0
C596(7) 0
C597(7) 0
C598(7) 0
C599(7) 0
C600(3) 0
C601(3) 0
C602(3) 0
C603(5) 0
C604(5) 0
C605(5) 0
C606(5) 0
C607(5) 0
C608(5) 0
C609(5) 0
C610(5) 0
C611(5) 0
C612(5) 0
C613(5) 0
C614(5) 0
C615(7) 18
C616(7) 0
C617(7) 53
C618(7) 0
C619(7) 0
C620(7) 58
C621(7) 0
C622(7) 0
C623(7) 0
C624(7) 0
C625(7) 0
C626(7) 0
C627(7) 0
C628(7) 0
C629(7) 0
C630(7) 0
C631(7) 0
C632(7) 0
C633(3) 0
C634(3) 0
C635(3) 0
C636(5) 0
C637(5) 0
C638(5) 0
C639(5) 0
C640(5) 0
C641(5) 0
C642(5) 8.1729897002914100e+00
C643(5) 0
C644(5) 0
C645(5) 0
C646(5) 0
C647(5) 0
C648(7) 0
C649(7) 0
C650(7) 0
C651(7) 1.3827010299708590e+01
C652(7) 235
C653(7) 219
C654(7) 0
C655(7) 0
C656(7) 0
C657(7) 0
C658(7) 0
C659(7) 0
C660(7) 0
C661(7) 0
C662(7) 0
C663(7) 0
C664(7) 0
C665(7) 0
C666(3) 0
C667(3) 0
C668(3) 0
C669(5) 0
C670(5) 0
C671(5) 0
C672(5) 0
C673(5) 0
C674(5) 0
C675(5) 0
C676(5) 0
C677(5) 0
C678(5) 0
C679(5) 0
C680(5) 0
C681(7) 0
C682(7) 23
C683(7) 0
C684(7) 0
C685(7) 0
C686(7) 0
C687(7) 0
C688(7) 0
C689(7) 0
C690(7) 0
C691(7) 0
C692(7) 0
C693(7) 0
C694(7) 0
C695(7) 0
C696(7) 0
C697(7) 0
C698(7) 0
C699(3) 0
C700(3) 0
C701(3) 0
C702(5) 0
C703(5) 0
C704(5) 0
C705(5) 0
C706(5) 0
C707(5) 0
C708(5) 0
C709(5) 0
C710(5) 0
C711(5) 0
C712(5) 0
C713(5) 0
C714(7) 0
C715(7) 0
C716(7) 0
C717(7) 0
C718(7) 286
C719(7) 0
C720(7) 0
C721(7) 0
C722(7) 0
C723(7) 0
C724(7) 0
C725(7) 0
C726(7) 0
C727(7) 0
C728(7) 0
C729(7) 0
C730(7) 0
C731(7) 0
C732(3) 0
C733(3) 0
C734(3) 0
C735(5) 2.2139981249489278e+00
C736(5) 0
C737(5) 0
C738(5) 0
C739(5) 0
C740(5) 0
C741(5) 0
C742(5) 0
C743(5) 0
C744(5) 0
C745(5) 0
C746(5) 0
C747(7) 0
C748(7) 0
C749(7) 0
C750(7) 2.5786001875051070e+01
C751(7) 0
C752(7) 22
C753(7) 0
C754(7) 0
C755(7) 0
C756(7) 0
C757(7) 0
C758(7) 0
C759(7) 0
C760(7) 0
C761(7) 0
C762(7) 0
C763(7) 0
C764(7) 0
C765(3) 0
C766(3) 0
C767(3) 3
C768(5) 8.7809544863063209e+00
C769(5) 0
C770(5) 0
C771(5) 0
C772(5) 0
C773(5) 0
C774(5) 0
C775(5) 0
C776(5) 0
C777(5) 0
C778(5) 0
C779(5) 0
C780(7) 9.2190455136936791e+00
C781(7) 0
C782(7) 6.1780954486306321e+01
C783(7) 0
C784(7) 0
C785(7) 4.9219045513693679e+01
C786(7) 0
C787(7) 0
C788(7) 0
C789(7) 0
C790(7) 0
C791(7) 0
C792(7) 0
C793(7) 0
C794(7) 0
C795(7) 0
C796(7) 0
C797(7) 0
C798(3) 0
C799(3) 0
C800(3) 0
C801(5) 4.6259206936855213e+00
C802(5) 0
C803(5) 5.5293100669554342e+01
C804(5) 0
C805(5) 0
C806(5) 0
C807(5) 0
C808(5) 0
C809(5) 0
C810(5) 0
C811(5) 0
C812(5) 0
C813(7) 0
C814(7) 0
C815(7) 0
C816(7) 1.7374079306314478e+01
C817(7) 235
C818(7) 1.6370689933044565e+02
C819(7) 0
C820(7) 0
C821(7) 0
C822(7) 0
C823(7) 0
C824(7) 0
C825(7) 0
C826(7) 0
C827(7) 0
C828(7) 0
C829(7) 0
C830(7) 0
C831(3) 0
C832(3) 0
C833(3) 0
C834(5) 0
C835(5) 0
C836(5) 0
C837(5) 0
C838(5) 0
C839(5) 0
C840(5) 0
C841(5) 0
C842(5) 0
C843(5) 0
C844(5) 0
C845(5) 0
C846(7) 0
C847(7) 23
C848(7) 0
C849(7) 0
C850(7) 0
C851(7) 0
C852(7) 0
C853(7) 0
C854(7) 0
C855(7) 0
C856(7) 0
C857(7) 0
C858(7) 0
C859(7) 0
C860(7) 0
C861(7) 0
C862(7) 0
C863(7) 0
C864(3) 0
C865(3) 0
C866(3) 0
C867(5) 0
C868(5) 0
C869(5) 0
C870(5) 0
C871(5) 0
C872(5) 0
C873(5) 0
C874(5) 0
C875(5) 0
C876(5) 0
C877(5) 0
C878(5) 0
C879(7) 0
C880(7) 0
C881(7) 0
C882(7) 0
C883(7) 286
C884(7) 0
C885(7) 0
C886(7) 0
C887(7) 0
C888(7) 0
C889(7) 0
C890(7) 0
C891(7) 0
C892(7) 0
C893(7) 0
C894(7) 0
C895(7) 0
C896(7) 0
C897(3) 0
C898(3) 0
C899(3) 0
C900(5) 0
C901(5) 0
C902(5) 0
C903(5) 0
C904(5) 0
C905(5) 0
C906(5) 0
C907(5) 0
C908(5) 3
C909(5) 0
C910(5) 0
C911(5) 0
C912(7) 0
C913(7) 0
C914(7) 0
C915(7) 28
C916(7) 0
C917(7) 22
C918(7) 0
C919(7) 0
C920(7) 0
C921(7) 0
C922(7) 0
C923(7) 0
C924(7) 0
C925(7) 0
C926(7) 0
C927(7) 0
C928(7) 0
C929(7) 0
C930(3) 0
C931(3) 0
C932(3) 0
C933(5) 0
C934(5) 0
C935(5) 0
C936(5) 5.2001515243474650e+00
C937(5) 0
C938(5) 0
C939(5) 0
C940(5) 0
C941(5) 0
C942(5) 0
C943(5) 0
C944(5) 0
C945(7) 0
C946(7) 0
C947(7) 6.5799848475652539e+01
C948(7) 1.2799848475652535e+01
C949(7) 0
C950(7) 4.5200151524347461e+01
C951(7) 0
C952(7) 0
C953(7) 0
C954(7) 0
C955(7) 0
C956(7) 0
C957(7) 0
C958(7) 0
C959(7) 0
C960(7) 0
C961(7) 0
C962(7) 0
C963(3) 0
C964(3) 0
C965(3) 0
C966(5) 0
C967(5) 0
C968(5) 0
C969(5) 0
C970(5) 0
C971(5) 0
C972(5) 0
C973(5) 0
C974(5) 3.8562025212083711e+01
C975(5) 0
C976(5) 0
C977(5) 0
C978(7) 0
C979(7) 0
C980(7) 0
C981(7) 22
C982(7) 2.3500000000000003e+02
C983(7) 1.8043797478791629e+02
C984(7) 0
C985(7) 0
C986(7) 0
C987(7) 0
C988(7) 0
C989(7) 0
C990(7) 0
C991(7) 0
C992(7) 0
C993(7) 0
C994(7) 0
C995(7) 0
C996(3) 0
C997(3) 0
C998(3) 0
C999(5) 0
C1000(5) 0
C1001(5) 0
C1002(5) 0
C1003(5) 3.0604443529001752e+00
C1004(5) 0
C1005(5) 0
C1006(5) 0
C1007(5) 0
C1008(5) 0
C1009(5) 0
C1010(5) 0
C1011(7) 0
C1012(7) 1.9939555647099890e+01
C1013(7) 0
C1014(7) 0
C1015(7) 0
C1016(7) 0
C1017(7) 0
C1018(7) 0
C1019(7) 0
C1020(7) 0
C1021(7) 0
C1022(7) 0
C1023(7) 0
C1024(7) 0
C1025(7) 0
C1026(7) 0
C1027(7) 0
C1028(7) 0
C1029(3) 0
C1030(3) 0
C1031(3) 0
C1032(5) 0
C1033(5) 0
C1034(5) 0
C1035(5) 0
C1036(5) 0
C1037(5) 0
C1038(5) 0
C1039(5) 0
C1040(5) 0
C1041(5) 0
C1042(5) 0
C1043(5) 0
C1044(7) 0
C1045(7) 0
C1046(7) 0
C1047(7) 0
C1048(7) 286
C1049(7) 0
C1050(7) 0
C1051(7) 0
C1052(7) 0
C1053(7) 0
C1054(7) 0
C1055(7) 0
C1056(7) 0
C1057(7) 0
C1058(7) 0
C1059(7) 0
C1060(7) 0
C1061(7) 0
C1062(3) 0
C1063(3) 0
C1064(3) 0
C1065(1) 0
C1066(1) 0
C1067(1) 0
C1068(1) 0
C1069(1) 0
C1070(1) 0
C1071(1) 0
C1072(1) 0
C1073(1) 2.0206624627190624e+02
C1074(1) 0
C1075(1) 2.3502024465919004e+02
C1076(1) 0
C1077(1) 2.4301135183681215e+01
C1078(1) 0
C1079(1) 1.2202024465919004e+02
C1080(1) 0
C1081(1) 6.0301135183681211e+01
C1082(1) 0
C1083(1) 2.9502024465919004e+02
C1084(1) 0
C1085(3) 0
C1086(3) 0
C1087(3) 0
C1088(3) 0
C1089(3) 0
C1090(3) 0
C1091(3) 0
C1092(3) 0
C1093(3) 177
C1094(3) 0
C1095(3) 250
C1096(3) 0
C1097(3) 0
C1098(3) 0
C1099(3) 137
C1100(3) 0
C1101(2) 36
C1102(2) 0
C1103(2) 310
C1104(2) 0
C1105(3) 0
C1106(3) 0
C1107(3) 0
C1108(3) 0
C1109(3) 0
C1110(3) 0
C1111(3) 0
C1112(3) 0
C1113(3) 2.1782701029970860e+02
C1114(3) 0
C1115(3) 250
C1116(3) 0
C1117(3) 4.0827010299708604e+01
C1118(3) 0
C1119(3) 137
C1120(3) 0
C1121(2) 7.6827010299708604e+01
C1122(2) 0
C1123(2) 310
C1124(2) 0
C1125(3) 0
C1126(3) 0
C1127(3) 0
C1128(3) 0
C1129(3) 0
C1130(3) 0
C1131(3) 0
C1132(3) 0
C1133(3) 226
C1134(3) 0
C1135(3) 1.9008097863676014e+02
C1136(3) 0
C1137(3) 49
C1138(3) 0
C1139(3) 7.7080978636760136e+01
C1140(3) 0
C1141(2) 85
C1142(2) 0
C1143(2) 2.5008097863676014e+02
C1144(2) 0
C1145(3) 0
C1146(3) 0
C1147(3) 0
C1148(3) 0
C1149(3) 0
C1150(3) 0
C1151(3) 0
C1152(3) 0
C1153(3) 1.8743797478791632e+02
C1154(3) 0
C1155(3) 2.5000000000000003e+02
C1156(3) 0
C1157(3) 7.3775304350162560e+00
C1158(3) 0
C1159(3) 1.3700000000000003e+02
C1160(3) 0
C1161(2) 4.3377530435016254e+01
C1162(2) 0
C1163(2) 310
C1164(2) 0
C1165(1) 1
C1166(1) 0
C1167(1) 1
C1168(1) 0
C1169(1) 3
C1170(1) 1
C1171(1) 9.9999999999999989e-01
C1172(1) 0
C1173(1) 5
C1174(1) 0
C1175(1) 2
C1176(1) 0
C1177(1) 4
C1178(1) 3
C1179(1) 1
C1180(1) 0
C1181(1) 5
C1182(1) 0
C1183(1) 1
C1184(1) 0
C1185(6) 1
C1186(6) 0
C1187(6) 1
C1188(6) 0
C1189(6) 3
C1190(6) 1
C1191(6) 1
C1192(6) 0
C1193(6) 5
C1194(6) 0
C1195(6) 2
C1196(6) 0
C1197(6) 4
C1198(6) 3
C1199(6) 1
C1200(6) 0
C1201(6) 5
C1202(6) 0
C1203(6) 1
C1204(6) 0
C1205(6) 1
C1206(6) 0
C1207(6) 1
C1208(6) 0
C1209(6) 3
C1210(6) 1
C1211(6) 9.9999999999999967e-01
C1212(6) 0
C1213(6) 5
C1214(6) 0
C1215(6) 2
C1216(6) 0
C1217(6) 4
C1218(6) 3
C1219(6) 1
C1220(6) 0
C1221(6) 5
C1222(6) 0
C1223(6) 1
C1224(6) 0
C1225(6) 1
C1226(6) 0
C1227(6) 1
C1228(6) 0
C1229(6) 3
C1230(6) 1
C1231(6) 1
C1232(6) 0
C1233(6) 5
C1234(6) 0
C1235(6) 2
C1236(6) 0
C1237(6) 4
C1238(6) 3
C1239(6) 1
C1240(6) 0
C1241(6) 5
C1242(6) 0
C1243(6) 1
C1244(6) 0
C1245(6) 1
C1246(6) 0
C1247(6) 1
C1248(6) 0
C1249(6) 3
C1250(6) 1
C1251(6) 1
C1252(6) 0
C1253(6) 5
C1254(6) 0
C1255(6) 2
C1256(6) 0
C1257(6) 4
C1258(6) 3
C1259(6) 1
C1260(6) 0
C1261(6) 5
C1262(6) 0
C1263(6) 1
C1264(6) 0
B1265(1) 1
B1266(1) 0
B1267(1) 1
B1268(1) 0
B1269(1) 0
B1270(1) 0
B1271(1) 1
B1272(1) 0
B1273(1) 0
B1274(1) 0
B1275(1) 0
B1276(1) 0
B1277(1) 1
B1278(1) 0
B1279(1) 1
B1280(1) 0
B1281(1) 0
B1282(1) 0
B1283(1) 1
B1284(1) 0
B1285(1) 1
B1286(1) 0
B1287(1) 1
B1288(1) 0
B1289(1) 0
B1290(1) 0
B1291(1) 9.9999999999999967e-01
B1292(1) 0
B1293(1) 0
B1294(1) 0
B1295(1) 0
B1296(1) 0
B1297(1) 1
B1298(1) 0
B1299(1) 1
B1300(1) 0
B1301(1) 0
B1302(1) 0
B1303(1) 1
B1304(1) 0
B1305(1) 1
B1306(1) 0
B1307(1) 1
B1308(1) 0
B1309(1) 0
B1310(1) 0
B1311(1) 1
B1312(1) 0
B1313(1) 0
B1314(1) 0
B1315(1) 0
B1316(1) 0
B1317(1) 1
B1318(1) 0
B1319(1) 1
B1320(1) 0
B1321(1) 0
B1322(1) 0
B1323(1) 1
B1324(1) 0
B1325(1) 1
B1326(1) 0
B1327(1) 1
B1328(1) 0
B1329(1) 0
B1330(1) 0
B1331(1) 1
B1332(1) 0
B1333(1) 0
B1334(1) 0
B1335(1) 0
B1336(1) 0
B1337(1) 1
B1338(1) 0
B1339(1) 1
B1340(1) 0
B1341(1) 0
B1342(1) 0
B1343(1) 1
B1344(1) 0
B1345(0) 0
B1346(0) 0
B1347(0) 0
B1348(0) 0
B1349(0) 0
B1350(0) 0
B1351(0) 0
B1352(0) 0
B1353(0) 0
B1354(0) 0
B1355(0) 0
B1356(0) 0
B1357(0) 0
B1358(0) 0
B1359(0) 0
B1360(0) 0
B1361(0) 0
B1362(0) 0
B1363(0) 0
B1364(0) 0
B1365(0) 0
B1366(0) 0
B1367(0) 0
B1368(0) 0
B1369(0) 0
B1370(0) 0
B1371(0) 0
B1372(0) 0
B1373(0) 0
B1374(0) 0
B1375(0) 0
B1376(0) 0
B1377(0) 0
B1378(0) 0
B1379(0) 0
B1380(0) 0
B1381(0) 0
B1382(0) 0
B1383(0) 0
B1384(0) 0
B1385(0) 0
B1386(0) 0
B1387(0) 0
B1388(0) 0
B1389(0) 0
B1390(0) 0
B1391(0) 0
B1392(0) 0
B1393(0) 0
B1394(0) 0
B1395(0) 0
B1396(0) 0
B1397(0) 0
B1398(0) 0
B1399(0) 0
B1400(0) 0
B1401(0) 0
B1402(0) 0
B1403(0) 0
B1404(0) 0
B1405(0) 0
B1406(0) 0
B1407(0) 0
B1408(0) 0
B1409(0) 0
B1410(0) 0
B1411(0) 0
B1412(0) 0
B1413(0) 0
B1414(0) 0
B1415(0) 0
B1416(0) 0
B1417(0) 0
B1418(0) 0
B1419(0) 0
B1420(0) 0
B1421(0) 0
B1422(0) 0
B1423(0) 0
B1424(0) 0
C1425(5) 4
C1426(3) 4
C1427(5) 11
C1428(3) 7
C1429(5) 14
C1430(3) 7
C1431(5) 19
C1432(3) 12
C1433(5) 12
C1434(2) 0
